c smth
s vc 140 105
139
137
134
133
131
128
126
125
123
119
118
117
116
114
113
112
111
110
109
108
107
105
103
102
101
100
99
97
96
95
94
92
90
89
86
85
84
83
81
80
79
78
77
76
75
73
72
71
70
69
67
66
65
64
63
62
59
57
55
54
53
52
51
50
49
48
46
45
43
42
41
40
39
38
37
36
35
34
33
32
31
30
29
28
27
25
23
22
21
20
19
18
17
16
15
14
13
11
9
8
7
6
5
4
1